min: 7 x1 + 659 x2 + 104 x3 + 514 x4 + 679 x5 + 347 x6 + 389 x7 + 269 x8 + 957 x9 + 147 x10 + 383 x11 + 111 x12 + 951 x13 + 286 x14 + 191 x15 + 217 x16 + 690 x17 + 7 x18 + 18 x19 + 317 x20;

x11 + x10 >= 1;
x12 + x6 + x9 + x10 + x8 + x18 >= 1;
x7 + x17 + x11 + x9 >= 1;
x13 + x14 + x9 + x15 >= 1;
x10 + x8 + x15 + x7 + x20 + x1 + x11 >= 1;
x1 + x11 + x5 + x16 + x7 + x9 + x17 >= 1;
x19 + x3 >= 1;
x11 + x19 + x5 >= 1;
x17 + x7 + x11 + x2 + x10 + x12 >= 1;
x16 + x1 + x2 + x17 + x18 >= 1;
x5 + x17 + x15 + x4 + x11 + x6 >= 1;
x19 + x17 + x3 >= 1;
x4 >= 1;
x13 >= 1;
x14 + x11 + x10 + x2 >= 1;
x15 >= 1;
x18 + x15 + x1 + x14 + x6 + x12 + x3 + x9 >= 1;
x10 + x4 + x15 + x7 >= 1;
x20 + x10 + x7 + x5 + x8 + x1 + x13 + x14 >= 1;
x15 + x10 >= 1;
x18 + x20 + x1 + x3 + x17 + x15 + x9 >= 1;
x11 + x1 + x7 + x19 + x9 >= 1;
x18 + x13 + x20 + x7 + x8 + x5 >= 1;
x2 >= 1;
x12 + x1 + x20 + x6 + x8 + x4 + x16 + x17 >= 1;
x15 + x12 + x2 + x4 + x7 + x5 + x1 + x11 >= 1;
x14 >= 1;
x11 + x18 >= 1;
x18 + x14 + x16 + x15 + x6 + x2 >= 1;
x6 >= 1;
x16 + x6 + x7 >= 1;
x7 + x16 + x9 + x19 + x10 >= 1;
x7 + x2 + x6 + x16 + x12 + x9 + x17 >= 1;
x8 + x17 + x19 + x11 >= 1;
x4 + x8 + x14 + x16 + x1 + x3 >= 1;
x7 + x11 + x15 + x4 + x5 >= 1;
x18 + x10 + x19 + x11 + x1 + x12 >= 1;
x1 + x12 + x13 + x10 + x17 + x9 + x8 + x7 >= 1;
x20 + x10 + x16 + x1 + x12 + x9 >= 1;
x15 >= 1;
x3 + x20 + x12 + x4 >= 1;
x3 + x7 + x19 + x18 >= 1;
x10 + x12 + x9 + x1 + x7 + x4 >= 1;
x14 + x20 >= 1;
x20 + x13 + x14 + x18 + x5 >= 1;
x2 + x13 + x6 + x5 + x16 >= 1;
x9 + x3 + x5 + x17 + x10 + x6 + x19 >= 1;
x8 >= 1;
x12 >= 1;
x6 + x20 + x3 + x14 + x1 >= 1;
x1 + x19 + x16 + x10 + x11 + x6 + x14 + x13 >= 1;
x6 + x5 >= 1;
x20 + x17 + x16 + x9 + x4 + x5 >= 1;
x7 >= 1;
x17 + x16 + x12 >= 1;
x2 >= 1;
x5 >= 1;
x3 + x15 + x8 + x10 >= 1;
x10 + x7 + x20 + x12 + x11 + x15 + x1 >= 1;
x10 + x8 + x17 + x20 + x9 + x3 + x7 >= 1;

bin x1, x2, x3, x4, x5, x6, x7, x8, x9, x10, x11, x12, x13, x14, x15, x16, x17, x18, x19, x20;
